% Logging successfully configured
%%%mzn-stat: initTime=0.01553537
%%%mzn-stat: objective=763
%%%mzn-stat: nodes=13486
%%%mzn-stat: restarts=0
%%%mzn-stat: peakDepth=786
%%%mzn-stat: solveTime=1.366670053
%%%mzn-stat: variables=1334
%%%mzn-stat: propagators=1014
%%%mzn-stat: failures=1718
%%%mzn-stat: propagations=117622
%%%mzn-stat: nogoods=1718
%%%mzn-stat: numAtomicConstraintsPropagated=0
%%%mzn-stat: allDifferentNumber1TotalHallSetSize=19989
%%%mzn-stat: allDifferentNumber1NumberOfConflicts=1455
%%%mzn-stat: allDifferentNumber1MaxHallSetSize=97
%%%mzn-stat: allDifferentNumber1PropagationsTotal=22912
%%%mzn-stat: allDifferentNumber1PropagationsThatFoundConflict=1455
%%%mzn-stat: circuitNumber2PropagationsThatFoundConflict=157
%%%mzn-stat: circuitNumber2TotalFixedEdgesAtConflict=14191
%%%mzn-stat: circuitNumber2NumberOfConflicts=157
%%%mzn-stat: circuitNumber2PropagationsThatPruned=1688
%%%mzn-stat: circuitNumber2PropagationsTotal=14449
%%%mzn-stat: AverageConflictSize=15.626891734575088
%%%mzn-stat: NumUnitNogoodsLearned=0
%%%mzn-stat: AverageLearnedNogoodLength=31.726426076833526
%%%mzn-stat: AverageBacktrackAmount=0
%%%mzn-stat: AverageLbd=25.041327124563445
%%%mzn-stat: 2AutonomousSearchNumBackupCalled=719
%%%mzn-stat: 2AutonomousSearchNumPredicatesRemoved=0
%%%mzn-stat: 2AutonomousSearchNumCalls=720
%%%mzn-stat: 2AutonomousSearchNumPredicatesAdded=3313
%%%mzn-stat: 2AutonomousSearchAverageSizeOfHeap=4.601388888888889
%%%mzn-stat: 2AutonomousSearchNumAssignedPredicatesEncountered=3313
%%%mzn-stat-end
maxleg = 763;
succ = array1d(1..100,[18, 5, 7, 11, 27, 42, 21, 10, 30, 14, 13, 17, 23, 37, 24, 22, 28, 15, 40, 25, 44, 39, 48, 35, 31, 49, 1, 32, 2, 3, 46, 53, 52, 29, 38, 58, 68, 47, 55, 41, 9, 73, 6, 50, 16, 66, 57, 74, 8, 43, 56, 69, 54, 91, 90, 59, 61, 12, 65, 4, 82, 89, 94, 75, 70, 78, 63, 87, 95, 72, 83, 96, 98, 93, 34, 33, 26, 79, 99, 84, 62, 20, 60, 71, 88, 19, 67, 64, 86, 97, 81, 45, 36, 51, 80, 76, 77, 100, 92, 85]);
% time elapsed: 6.70 s
----------
%%%mzn-stat: initTime=0.01553537
%%%mzn-stat: objective=565
%%%mzn-stat: nodes=14572
%%%mzn-stat: restarts=0
%%%mzn-stat: peakDepth=786
%%%mzn-stat: solveTime=1.5391700149999998
%%%mzn-stat: variables=1334
%%%mzn-stat: propagators=1014
%%%mzn-stat: failures=2001
%%%mzn-stat: propagations=128610
%%%mzn-stat: nogoods=2001
%%%mzn-stat: numAtomicConstraintsPropagated=0
%%%mzn-stat: allDifferentNumber1TotalHallSetSize=20458
%%%mzn-stat: allDifferentNumber1NumberOfConflicts=1579
%%%mzn-stat: allDifferentNumber1MaxHallSetSize=97
%%%mzn-stat: allDifferentNumber1PropagationsTotal=24020
%%%mzn-stat: allDifferentNumber1PropagationsThatFoundConflict=1579
%%%mzn-stat: circuitNumber2PropagationsThatFoundConflict=242
%%%mzn-stat: circuitNumber2TotalFixedEdgesAtConflict=22216
%%%mzn-stat: circuitNumber2NumberOfConflicts=242
%%%mzn-stat: circuitNumber2PropagationsThatPruned=1891
%%%mzn-stat: circuitNumber2PropagationsTotal=15210
%%%mzn-stat: AverageConflictSize=16.869565217391305
%%%mzn-stat: NumUnitNogoodsLearned=0
%%%mzn-stat: AverageLearnedNogoodLength=33.75312343828086
%%%mzn-stat: AverageBacktrackAmount=0
%%%mzn-stat: AverageLbd=26.879560219890056
%%%mzn-stat: 2AutonomousSearchNumBackupCalled=1397
%%%mzn-stat: 2AutonomousSearchNumPredicatesRemoved=0
%%%mzn-stat: 2AutonomousSearchNumCalls=1399
%%%mzn-stat: 2AutonomousSearchNumPredicatesAdded=5695
%%%mzn-stat: 2AutonomousSearchAverageSizeOfHeap=5.0421729807005
%%%mzn-stat: 2AutonomousSearchNumAssignedPredicatesEncountered=7054
%%%mzn-stat-end
maxleg = 565;
succ = array1d(1..100,[18, 5, 7, 11, 27, 42, 21, 10, 30, 14, 13, 17, 23, 37, 24, 22, 28, 15, 40, 25, 44, 39, 48, 35, 31, 49, 1, 32, 2, 3, 46, 53, 52, 29, 38, 58, 68, 47, 55, 41, 9, 73, 6, 50, 16, 66, 57, 74, 8, 43, 56, 69, 54, 91, 90, 59, 61, 12, 65, 71, 82, 89, 94, 75, 70, 67, 78, 87, 95, 72, 84, 96, 98, 93, 34, 33, 45, 99, 63, 26, 62, 86, 60, 80, 88, 83, 20, 64, 19, 97, 81, 77, 36, 51, 4, 76, 79, 100, 92, 85]);
% time elapsed: 6.87 s
----------
%%%mzn-stat: initTime=0.01553537
%%%mzn-stat: objective=243
%%%mzn-stat: nodes=15383
%%%mzn-stat: restarts=0
%%%mzn-stat: peakDepth=786
%%%mzn-stat: solveTime=1.550822121
%%%mzn-stat: variables=1334
%%%mzn-stat: propagators=1014
%%%mzn-stat: failures=2009
%%%mzn-stat: propagations=130946
%%%mzn-stat: nogoods=2009
%%%mzn-stat: numAtomicConstraintsPropagated=0
%%%mzn-stat: allDifferentNumber1TotalHallSetSize=20475
%%%mzn-stat: allDifferentNumber1NumberOfConflicts=1587
%%%mzn-stat: allDifferentNumber1MaxHallSetSize=97
%%%mzn-stat: allDifferentNumber1PropagationsTotal=24198
%%%mzn-stat: allDifferentNumber1PropagationsThatFoundConflict=1587
%%%mzn-stat: circuitNumber2PropagationsThatFoundConflict=242
%%%mzn-stat: circuitNumber2TotalFixedEdgesAtConflict=22216
%%%mzn-stat: circuitNumber2NumberOfConflicts=242
%%%mzn-stat: circuitNumber2PropagationsThatPruned=1901
%%%mzn-stat: circuitNumber2PropagationsTotal=15325
%%%mzn-stat: AverageConflictSize=16.81234444997511
%%%mzn-stat: NumUnitNogoodsLearned=0
%%%mzn-stat: AverageLearnedNogoodLength=33.62867098058736
%%%mzn-stat: AverageBacktrackAmount=0
%%%mzn-stat: AverageLbd=26.782478845196614
%%%mzn-stat: 2AutonomousSearchNumBackupCalled=2098
%%%mzn-stat: 2AutonomousSearchNumPredicatesRemoved=0
%%%mzn-stat: 2AutonomousSearchNumCalls=2101
%%%mzn-stat: 2AutonomousSearchNumPredicatesAdded=5713
%%%mzn-stat: 2AutonomousSearchAverageSizeOfHeap=5.138029509757258
%%%mzn-stat: 2AutonomousSearchNumAssignedPredicatesEncountered=10795
%%%mzn-stat-end
maxleg = 243;
succ = array1d(1..100,[18, 5, 7, 11, 27, 42, 21, 10, 30, 14, 13, 17, 23, 37, 24, 22, 28, 15, 40, 25, 44, 39, 48, 35, 31, 49, 1, 32, 2, 3, 46, 53, 52, 29, 38, 58, 68, 47, 55, 41, 9, 73, 6, 50, 16, 66, 57, 74, 8, 43, 56, 69, 54, 91, 90, 59, 61, 51, 65, 4, 82, 89, 26, 75, 70, 67, 78, 87, 95, 72, 84, 96, 98, 93, 34, 33, 12, 79, 99, 94, 62, 86, 71, 60, 88, 83, 20, 64, 19, 97, 81, 45, 36, 63, 80, 76, 77, 100, 92, 85]);
% time elapsed: 6.89 s
----------
%%%mzn-stat: initTime=0.01553537
%%%mzn-stat: objective=240
%%%mzn-stat: nodes=16228
%%%mzn-stat: restarts=0
%%%mzn-stat: peakDepth=786
%%%mzn-stat: solveTime=1.5687104139999999
%%%mzn-stat: variables=1334
%%%mzn-stat: propagators=1014
%%%mzn-stat: failures=2028
%%%mzn-stat: propagations=134223
%%%mzn-stat: nogoods=2028
%%%mzn-stat: numAtomicConstraintsPropagated=0
%%%mzn-stat: allDifferentNumber1TotalHallSetSize=20586
%%%mzn-stat: allDifferentNumber1NumberOfConflicts=1606
%%%mzn-stat: allDifferentNumber1MaxHallSetSize=97
%%%mzn-stat: allDifferentNumber1PropagationsTotal=24511
%%%mzn-stat: allDifferentNumber1PropagationsThatFoundConflict=1606
%%%mzn-stat: circuitNumber2PropagationsThatFoundConflict=242
%%%mzn-stat: circuitNumber2TotalFixedEdgesAtConflict=22216
%%%mzn-stat: circuitNumber2NumberOfConflicts=242
%%%mzn-stat: circuitNumber2PropagationsThatPruned=1938
%%%mzn-stat: circuitNumber2PropagationsTotal=15542
%%%mzn-stat: AverageConflictSize=16.72682445759369
%%%mzn-stat: NumUnitNogoodsLearned=0
%%%mzn-stat: AverageLearnedNogoodLength=33.39250493096647
%%%mzn-stat: AverageBacktrackAmount=0
%%%mzn-stat: AverageLbd=26.588264299802763
%%%mzn-stat: 2AutonomousSearchNumBackupCalled=2757
%%%mzn-stat: 2AutonomousSearchNumPredicatesRemoved=0
%%%mzn-stat: 2AutonomousSearchNumCalls=2761
%%%mzn-stat: 2AutonomousSearchNumPredicatesAdded=6032
%%%mzn-stat: 2AutonomousSearchAverageSizeOfHeap=5.2883013400941685
%%%mzn-stat: 2AutonomousSearchNumAssignedPredicatesEncountered=14601
%%%mzn-stat-end
maxleg = 240;
succ = array1d(1..100,[18, 5, 7, 11, 27, 42, 21, 10, 30, 14, 13, 17, 23, 37, 24, 22, 28, 15, 40, 25, 44, 39, 48, 35, 31, 49, 1, 32, 2, 3, 46, 53, 52, 29, 38, 58, 68, 47, 55, 41, 9, 73, 6, 50, 16, 66, 57, 74, 8, 43, 69, 56, 54, 91, 90, 51, 61, 95, 33, 4, 82, 89, 67, 75, 59, 78, 87, 70, 94, 72, 84, 76, 98, 93, 34, 96, 12, 79, 99, 26, 62, 86, 71, 60, 88, 83, 20, 64, 19, 97, 81, 45, 36, 63, 80, 65, 77, 100, 92, 85]);
% time elapsed: 6.90 s
----------
%%%mzn-stat: initTime=0.01553537
%%%mzn-stat: objective=221
%%%mzn-stat: nodes=17702
%%%mzn-stat: restarts=0
%%%mzn-stat: peakDepth=786
%%%mzn-stat: solveTime=1.640177979
%%%mzn-stat: variables=1334
%%%mzn-stat: propagators=1014
%%%mzn-stat: failures=2101
%%%mzn-stat: propagations=143488
%%%mzn-stat: nogoods=2101
%%%mzn-stat: numAtomicConstraintsPropagated=0
%%%mzn-stat: allDifferentNumber1TotalHallSetSize=21022
%%%mzn-stat: allDifferentNumber1NumberOfConflicts=1658
%%%mzn-stat: allDifferentNumber1MaxHallSetSize=97
%%%mzn-stat: allDifferentNumber1PropagationsTotal=25923
%%%mzn-stat: allDifferentNumber1PropagationsThatFoundConflict=1658
%%%mzn-stat: circuitNumber2PropagationsThatFoundConflict=261
%%%mzn-stat: circuitNumber2TotalFixedEdgesAtConflict=23942
%%%mzn-stat: circuitNumber2NumberOfConflicts=261
%%%mzn-stat: circuitNumber2PropagationsThatPruned=2057
%%%mzn-stat: circuitNumber2PropagationsTotal=16459
%%%mzn-stat: AverageConflictSize=16.607805806758687
%%%mzn-stat: NumUnitNogoodsLearned=0
%%%mzn-stat: AverageLearnedNogoodLength=32.74535935268919
%%%mzn-stat: AverageBacktrackAmount=0
%%%mzn-stat: AverageLbd=26.03950499762018
%%%mzn-stat: 2AutonomousSearchNumBackupCalled=3438
%%%mzn-stat: 2AutonomousSearchNumPredicatesRemoved=0
%%%mzn-stat: 2AutonomousSearchNumCalls=3443
%%%mzn-stat: 2AutonomousSearchNumPredicatesAdded=7121
%%%mzn-stat: 2AutonomousSearchAverageSizeOfHeap=5.386000580888759
%%%mzn-stat: 2AutonomousSearchNumAssignedPredicatesEncountered=18544
%%%mzn-stat-end
maxleg = 221;
succ = array1d(1..100,[18, 5, 7, 11, 29, 42, 21, 10, 30, 14, 13, 17, 23, 37, 24, 22, 28, 15, 40, 25, 44, 39, 48, 35, 31, 49, 1, 32, 27, 3, 46, 53, 52, 36, 38, 2, 68, 47, 55, 41, 9, 73, 6, 50, 16, 66, 57, 74, 8, 43, 58, 56, 54, 91, 90, 51, 61, 95, 33, 71, 82, 89, 67, 75, 59, 78, 87, 70, 94, 72, 84, 76, 98, 93, 34, 96, 12, 79, 99, 26, 62, 86, 60, 80, 88, 83, 20, 64, 19, 97, 81, 45, 69, 63, 4, 65, 77, 100, 92, 85]);
% time elapsed: 6.98 s
----------
%%%mzn-stat: initTime=0.01553537
%%%mzn-stat: objective=220
%%%mzn-stat: nodes=165992
%%%mzn-stat: restarts=0
%%%mzn-stat: peakDepth=786
%%%mzn-stat: solveTime=82.126249228
%%%mzn-stat: variables=1334
%%%mzn-stat: propagators=1014
%%%mzn-stat: failures=112437
%%%mzn-stat: propagations=2357735
%%%mzn-stat: nogoods=112437
%%%mzn-stat: numAtomicConstraintsPropagated=0
%%%mzn-stat: allDifferentNumber1TotalHallSetSize=6691844
%%%mzn-stat: allDifferentNumber1NumberOfConflicts=111832
%%%mzn-stat: allDifferentNumber1MaxHallSetSize=97
%%%mzn-stat: allDifferentNumber1PropagationsTotal=432139
%%%mzn-stat: allDifferentNumber1PropagationsThatFoundConflict=111832
%%%mzn-stat: circuitNumber2PropagationsThatFoundConflict=278
%%%mzn-stat: circuitNumber2TotalFixedEdgesAtConflict=25420
%%%mzn-stat: circuitNumber2NumberOfConflicts=278
%%%mzn-stat: circuitNumber2PropagationsThatPruned=38850
%%%mzn-stat: circuitNumber2PropagationsTotal=244384
%%%mzn-stat: AverageConflictSize=73.52810018054555
%%%mzn-stat: NumUnitNogoodsLearned=0
%%%mzn-stat: AverageLearnedNogoodLength=67.81158337557922
%%%mzn-stat: AverageBacktrackAmount=0
%%%mzn-stat: AverageLbd=38.23184538897338
%%%mzn-stat: 2AutonomousSearchNumBackupCalled=4124
%%%mzn-stat: 2AutonomousSearchNumPredicatesRemoved=0
%%%mzn-stat: 2AutonomousSearchNumCalls=4130
%%%mzn-stat: 2AutonomousSearchNumPredicatesAdded=9522
%%%mzn-stat: 2AutonomousSearchAverageSizeOfHeap=5.651331719128329
%%%mzn-stat: 2AutonomousSearchNumAssignedPredicatesEncountered=23340
%%%mzn-stat-end
maxleg = 220;
succ = array1d(1..100,[18, 5, 7, 11, 29, 42, 21, 10, 30, 14, 13, 17, 23, 37, 24, 22, 28, 15, 40, 25, 44, 45, 48, 35, 31, 49, 1, 32, 27, 3, 46, 53, 52, 36, 38, 2, 68, 47, 16, 41, 9, 73, 6, 50, 77, 66, 57, 74, 8, 43, 58, 56, 54, 91, 39, 51, 61, 95, 33, 71, 82, 89, 67, 75, 59, 78, 87, 70, 94, 72, 84, 76, 98, 93, 34, 96, 12, 79, 99, 26, 62, 86, 60, 80, 88, 83, 20, 64, 19, 55, 81, 97, 69, 63, 4, 65, 90, 100, 92, 85]);
% time elapsed: 87.47 s
----------
%%%mzn-stat: initTime=0.01553537
%%%mzn-stat: objective=206
%%%mzn-stat: nodes=166788
%%%mzn-stat: restarts=0
%%%mzn-stat: peakDepth=786
%%%mzn-stat: solveTime=82.145086802
%%%mzn-stat: variables=1334
%%%mzn-stat: propagators=1014
%%%mzn-stat: failures=112445
%%%mzn-stat: propagations=2360500
%%%mzn-stat: nogoods=112445
%%%mzn-stat: numAtomicConstraintsPropagated=0
%%%mzn-stat: allDifferentNumber1TotalHallSetSize=6691948
%%%mzn-stat: allDifferentNumber1NumberOfConflicts=111840
%%%mzn-stat: allDifferentNumber1MaxHallSetSize=97
%%%mzn-stat: allDifferentNumber1PropagationsTotal=432365
%%%mzn-stat: allDifferentNumber1PropagationsThatFoundConflict=111840
%%%mzn-stat: circuitNumber2PropagationsThatFoundConflict=278
%%%mzn-stat: circuitNumber2TotalFixedEdgesAtConflict=25420
%%%mzn-stat: circuitNumber2NumberOfConflicts=278
%%%mzn-stat: circuitNumber2PropagationsThatPruned=38863
%%%mzn-stat: circuitNumber2PropagationsTotal=244545
%%%mzn-stat: AverageConflictSize=73.5242740895549
%%%mzn-stat: NumUnitNogoodsLearned=0
%%%mzn-stat: AverageLearnedNogoodLength=67.8083329627818
%%%mzn-stat: AverageBacktrackAmount=0
%%%mzn-stat: AverageLbd=38.230041353550625
%%%mzn-stat: 2AutonomousSearchNumBackupCalled=4775
%%%mzn-stat: 2AutonomousSearchNumPredicatesRemoved=0
%%%mzn-stat: 2AutonomousSearchNumCalls=4782
%%%mzn-stat: 2AutonomousSearchNumPredicatesAdded=9945
%%%mzn-stat: 2AutonomousSearchAverageSizeOfHeap=5.883730656629026
%%%mzn-stat: 2AutonomousSearchNumAssignedPredicatesEncountered=28136
%%%mzn-stat-end
maxleg = 206;
succ = array1d(1..100,[18, 5, 7, 11, 29, 42, 21, 10, 30, 14, 13, 17, 23, 37, 24, 22, 28, 15, 40, 25, 44, 45, 48, 35, 31, 49, 1, 32, 27, 3, 46, 53, 52, 36, 38, 2, 68, 47, 55, 41, 9, 73, 6, 50, 77, 66, 57, 74, 8, 43, 58, 56, 54, 91, 16, 51, 61, 95, 33, 71, 82, 89, 67, 75, 59, 78, 87, 70, 94, 72, 84, 76, 98, 93, 34, 96, 12, 79, 99, 26, 62, 86, 60, 80, 88, 83, 20, 64, 19, 39, 81, 97, 69, 63, 4, 65, 90, 100, 92, 85]);
% time elapsed: 87.49 s
----------
%%%mzn-stat: initTime=0.01553537
%%%mzn-stat: objective=205
%%%mzn-stat: nodes=167677
%%%mzn-stat: restarts=0
%%%mzn-stat: peakDepth=786
%%%mzn-stat: solveTime=82.176007228
%%%mzn-stat: variables=1334
%%%mzn-stat: propagators=1014
%%%mzn-stat: failures=112469
%%%mzn-stat: propagations=2364449
%%%mzn-stat: nogoods=112469
%%%mzn-stat: numAtomicConstraintsPropagated=0
%%%mzn-stat: allDifferentNumber1TotalHallSetSize=6692138
%%%mzn-stat: allDifferentNumber1NumberOfConflicts=111861
%%%mzn-stat: allDifferentNumber1MaxHallSetSize=97
%%%mzn-stat: allDifferentNumber1PropagationsTotal=432781
%%%mzn-stat: allDifferentNumber1PropagationsThatFoundConflict=111861
%%%mzn-stat: circuitNumber2PropagationsThatFoundConflict=280
%%%mzn-stat: circuitNumber2TotalFixedEdgesAtConflict=25526
%%%mzn-stat: circuitNumber2NumberOfConflicts=280
%%%mzn-stat: circuitNumber2PropagationsThatPruned=38888
%%%mzn-stat: circuitNumber2PropagationsTotal=244824
%%%mzn-stat: AverageConflictSize=73.51154540362234
%%%mzn-stat: NumUnitNogoodsLearned=0
%%%mzn-stat: AverageLearnedNogoodLength=67.79734860272609
%%%mzn-stat: AverageBacktrackAmount=0
%%%mzn-stat: AverageLbd=38.22431069894815
%%%mzn-stat: 2AutonomousSearchNumBackupCalled=5408
%%%mzn-stat: 2AutonomousSearchNumPredicatesRemoved=0
%%%mzn-stat: 2AutonomousSearchNumCalls=5416
%%%mzn-stat: 2AutonomousSearchNumPredicatesAdded=10781
%%%mzn-stat: 2AutonomousSearchAverageSizeOfHeap=6.105982274741507
%%%mzn-stat: 2AutonomousSearchNumAssignedPredicatesEncountered=33070
%%%mzn-stat-end
maxleg = 205;
succ = array1d(1..100,[18, 5, 7, 11, 29, 42, 21, 10, 30, 14, 13, 17, 23, 37, 24, 22, 28, 15, 40, 25, 44, 45, 48, 35, 31, 49, 1, 32, 27, 3, 46, 53, 52, 36, 38, 2, 68, 88, 55, 41, 9, 73, 6, 50, 77, 66, 57, 98, 8, 43, 58, 56, 54, 91, 16, 51, 61, 95, 33, 71, 82, 89, 67, 75, 59, 78, 87, 70, 94, 72, 84, 76, 64, 93, 34, 96, 12, 79, 99, 26, 62, 86, 60, 80, 47, 83, 20, 85, 19, 39, 81, 97, 69, 63, 4, 65, 90, 100, 92, 74]);
% time elapsed: 87.53 s
----------
%%%mzn-stat: initTime=0.01553537
%%%mzn-stat: objective=203
%%%mzn-stat: nodes=168693
%%%mzn-stat: restarts=0
%%%mzn-stat: peakDepth=786
%%%mzn-stat: solveTime=82.213863737
%%%mzn-stat: variables=1334
%%%mzn-stat: propagators=1014
%%%mzn-stat: failures=112493
%%%mzn-stat: propagations=2369390
%%%mzn-stat: nogoods=112493
%%%mzn-stat: numAtomicConstraintsPropagated=0
%%%mzn-stat: allDifferentNumber1TotalHallSetSize=6692273
%%%mzn-stat: allDifferentNumber1NumberOfConflicts=111884
%%%mzn-stat: allDifferentNumber1MaxHallSetSize=97
%%%mzn-stat: allDifferentNumber1PropagationsTotal=433376
%%%mzn-stat: allDifferentNumber1PropagationsThatFoundConflict=111884
%%%mzn-stat: circuitNumber2PropagationsThatFoundConflict=280
%%%mzn-stat: circuitNumber2TotalFixedEdgesAtConflict=25526
%%%mzn-stat: circuitNumber2NumberOfConflicts=280
%%%mzn-stat: circuitNumber2PropagationsThatPruned=38942
%%%mzn-stat: circuitNumber2PropagationsTotal=245229
%%%mzn-stat: AverageConflictSize=73.49802209915283
%%%mzn-stat: NumUnitNogoodsLearned=0
%%%mzn-stat: AverageLearnedNogoodLength=67.78572000035558
%%%mzn-stat: AverageBacktrackAmount=0
%%%mzn-stat: AverageLbd=38.21813801747664
%%%mzn-stat: 2AutonomousSearchNumBackupCalled=6063
%%%mzn-stat: 2AutonomousSearchNumPredicatesRemoved=0
%%%mzn-stat: 2AutonomousSearchNumCalls=6072
%%%mzn-stat: 2AutonomousSearchNumPredicatesAdded=11775
%%%mzn-stat: 2AutonomousSearchAverageSizeOfHeap=6.303853754940712
%%%mzn-stat: 2AutonomousSearchNumAssignedPredicatesEncountered=38277
%%%mzn-stat-end
maxleg = 203;
succ = array1d(1..100,[18, 5, 7, 11, 29, 42, 21, 10, 30, 14, 13, 17, 23, 37, 24, 22, 28, 15, 40, 25, 44, 45, 48, 35, 31, 49, 1, 32, 27, 3, 46, 53, 52, 36, 38, 2, 68, 88, 55, 41, 62, 73, 6, 19, 77, 66, 57, 98, 8, 43, 58, 56, 54, 91, 16, 51, 61, 95, 33, 71, 82, 89, 67, 75, 59, 78, 87, 70, 94, 72, 84, 76, 64, 93, 34, 96, 12, 79, 99, 26, 9, 86, 60, 80, 47, 83, 20, 85, 50, 39, 81, 97, 69, 63, 4, 65, 90, 100, 92, 74]);
% time elapsed: 87.57 s
----------
%%%mzn-stat: initTime=0.01553537
%%%mzn-stat: objective=202
%%%mzn-stat: nodes=169409
%%%mzn-stat: restarts=0
%%%mzn-stat: peakDepth=786
%%%mzn-stat: solveTime=82.223356107
%%%mzn-stat: variables=1334
%%%mzn-stat: propagators=1014
%%%mzn-stat: failures=112493
%%%mzn-stat: propagations=2371261
%%%mzn-stat: nogoods=112493
%%%mzn-stat: numAtomicConstraintsPropagated=0
%%%mzn-stat: allDifferentNumber1TotalHallSetSize=6692273
%%%mzn-stat: allDifferentNumber1NumberOfConflicts=111884
%%%mzn-stat: allDifferentNumber1MaxHallSetSize=97
%%%mzn-stat: allDifferentNumber1PropagationsTotal=433497
%%%mzn-stat: allDifferentNumber1PropagationsThatFoundConflict=111884
%%%mzn-stat: circuitNumber2PropagationsThatFoundConflict=280
%%%mzn-stat: circuitNumber2TotalFixedEdgesAtConflict=25526
%%%mzn-stat: circuitNumber2NumberOfConflicts=280
%%%mzn-stat: circuitNumber2PropagationsThatPruned=38950
%%%mzn-stat: circuitNumber2PropagationsTotal=245310
%%%mzn-stat: AverageConflictSize=73.49802209915283
%%%mzn-stat: NumUnitNogoodsLearned=0
%%%mzn-stat: AverageLearnedNogoodLength=67.78572000035558
%%%mzn-stat: AverageBacktrackAmount=0
%%%mzn-stat: AverageLbd=38.21813801747664
%%%mzn-stat: 2AutonomousSearchNumBackupCalled=6706
%%%mzn-stat: 2AutonomousSearchNumPredicatesRemoved=0
%%%mzn-stat: 2AutonomousSearchNumCalls=6716
%%%mzn-stat: 2AutonomousSearchNumPredicatesAdded=11775
%%%mzn-stat: 2AutonomousSearchAverageSizeOfHeap=6.474687313877308
%%%mzn-stat: 2AutonomousSearchNumAssignedPredicatesEncountered=43484
%%%mzn-stat-end
maxleg = 202;
succ = array1d(1..100,[18, 5, 7, 11, 29, 42, 21, 10, 30, 14, 13, 17, 23, 37, 24, 22, 28, 15, 40, 25, 44, 45, 48, 35, 31, 49, 1, 32, 27, 3, 46, 53, 52, 36, 38, 2, 68, 88, 55, 41, 62, 73, 6, 19, 77, 66, 57, 98, 8, 43, 58, 56, 54, 91, 16, 51, 61, 95, 33, 71, 82, 89, 67, 75, 59, 78, 87, 96, 94, 65, 84, 70, 64, 93, 34, 72, 12, 79, 99, 26, 9, 86, 60, 80, 47, 83, 20, 85, 50, 39, 81, 97, 69, 63, 4, 76, 90, 100, 92, 74]);
% time elapsed: 87.58 s
----------
%%%mzn-stat: initTime=0.01553537
%%%mzn-stat: objective=202
%%%mzn-stat: nodes=2227786
%%%mzn-stat: restarts=0
%%%mzn-stat: peakDepth=786
%%%mzn-stat: solveTime=1794.763647741
%%%mzn-stat: variables=1334
%%%mzn-stat: propagators=1014
%%%mzn-stat: failures=2067197
%%%mzn-stat: propagations=51362953
%%%mzn-stat: nogoods=2067197
%%%mzn-stat: numAtomicConstraintsPropagated=0
%%%mzn-stat: allDifferentNumber1TotalHallSetSize=126083148
%%%mzn-stat: allDifferentNumber1NumberOfConflicts=1988869
%%%mzn-stat: allDifferentNumber1MaxHallSetSize=97
%%%mzn-stat: allDifferentNumber1PropagationsTotal=6518189
%%%mzn-stat: allDifferentNumber1PropagationsThatFoundConflict=1988869
%%%mzn-stat: circuitNumber2PropagationsThatFoundConflict=37801
%%%mzn-stat: circuitNumber2TotalFixedEdgesAtConflict=1610838
%%%mzn-stat: circuitNumber2NumberOfConflicts=37801
%%%mzn-stat: circuitNumber2PropagationsThatPruned=324528
%%%mzn-stat: circuitNumber2PropagationsTotal=3092256
%%%mzn-stat: AverageConflictSize=86.46991457514693
%%%mzn-stat: NumUnitNogoodsLearned=0
%%%mzn-stat: AverageLearnedNogoodLength=105.8139645132999
%%%mzn-stat: AverageBacktrackAmount=0
%%%mzn-stat: AverageLbd=32.52993304460097
%%%mzn-stat: 2AutonomousSearchNumBackupCalled=6706
%%%mzn-stat: 2AutonomousSearchNumPredicatesRemoved=0
%%%mzn-stat: 2AutonomousSearchNumCalls=6716
%%%mzn-stat: 2AutonomousSearchNumPredicatesAdded=15485
%%%mzn-stat: 2AutonomousSearchAverageSizeOfHeap=6.474687313877308
%%%mzn-stat: 2AutonomousSearchNumAssignedPredicatesEncountered=43484
%%%mzn-stat-end
